c Sudoku solution
p cnf 729 0
223 0
236 0
249 0
319 0
345 0
368 0
377 0
393 0
442 0
456 0
386 0
533 0
567 0
574 0
618 0
689 0
726 0
516 0
732 0
754 0
798 0
828 0
138 0
857 0
147 0
166 0
153 0
264 0
217 0
112 0
125 0
352 0
251 0
787 0
644 0
655 0
872 0
962 0
914 0
991 0
415 0
497 0
637 0
927 0
595 0
292 0
582 0
696 0
622 0
976 0
846 0
741 0
713 0
811 0
548 0
559 0
521 0
324 0
331 0
429 0
434 0
943 0
958 0
883 0
985 0
894 0
779 0
765 0
869 0
835 0
939 0
275 0
288 0
478 0
673 0
481 0
463 0
661 0
171 0
184 0
199 0
